p cnf 461 1324
c weights 1.0 1.0 2.718281828459045 0.36787944117144233 2.718281828459045 0.36787944117144233 2.718281828459045 0.36787944117144233 2.718281828459045 0.36787944117144233 2.718281828459045 0.36787944117144233 2.718281828459045 0.36787944117144233 1.0 1.0 2.718281828459045 0.36787944117144233 2.718281828459045 0.36787944117144233 2.718281828459045 0.36787944117144233 2.718281828459045 0.36787944117144233 2.718281828459045 0.36787944117144233 2.718281828459045 0.36787944117144233 1.0 1.0 2.718281828459045 0.36787944117144233 2.718281828459045 0.36787944117144233 2.718281828459045 0.36787944117144233 1.0 1.0 2.718281828459045 0.36787944117144233 2.718281828459045 0.36787944117144233 2.718281828459045 0.36787944117144233 2.718281828459045 0.36787944117144233 2.718281828459045 0.36787944117144233 2.718281828459045 0.36787944117144233 2.718281828459045 0.36787944117144233 2.718281828459045 0.36787944117144233 2.718281828459045 0.36787944117144233 2.718281828459045 0.36787944117144233 1.0 1.0 2.718281828459045 0.36787944117144233 2.718281828459045 0.36787944117144233 2.718281828459045 0.36787944117144233 2.718281828459045 0.36787944117144233 2.718281828459045 0.36787944117144233 2.718281828459045 0.36787944117144233 1.0 1.0 2.718281828459045 0.36787944117144233 2.718281828459045 0.36787944117144233 2.718281828459045 0.36787944117144233 2.718281828459045 0.36787944117144233 1.0 1.0 2.718281828459045 0.36787944117144233 2.718281828459045 0.36787944117144233 2.718281828459045 0.36787944117144233 2.718281828459045 0.36787944117144233 1.0 1.0 2.718281828459045 0.36787944117144233 2.718281828459045 0.36787944117144233 2.718281828459045 0.36787944117144233 1.0 1.0 2.718281828459045 0.36787944117144233 2.718281828459045 0.36787944117144233 2.718281828459045 0.36787944117144233 2.718281828459045 0.36787944117144233 2.718281828459045 0.36787944117144233 2.718281828459045 0.36787944117144233 2.718281828459045 0.36787944117144233 2.718281828459045 0.36787944117144233 1.0 1.0 2.718281828459045 0.36787944117144233 2.718281828459045 0.36787944117144233 2.718281828459045 0.36787944117144233 1.0 1.0 2.718281828459045 0.36787944117144233 2.718281828459045 0.36787944117144233 2.718281828459045 0.36787944117144233 2.718281828459045 0.36787944117144233 2.718281828459045 0.36787944117144233 2.718281828459045 0.36787944117144233 1.0 1.0 2.718281828459045 0.36787944117144233 2.718281828459045 0.36787944117144233 2.718281828459045 0.36787944117144233 2.718281828459045 0.36787944117144233 2.718281828459045 0.36787944117144233 1.0 1.0 2.718281828459045 0.36787944117144233 2.718281828459045 0.36787944117144233 2.718281828459045 0.36787944117144233 2.718281828459045 0.36787944117144233 2.718281828459045 0.36787944117144233 2.718281828459045 0.36787944117144233 1.0 1.0 2.718281828459045 0.36787944117144233 2.718281828459045 0.36787944117144233 2.718281828459045 0.36787944117144233 1.0 1.0 2.718281828459045 0.36787944117144233 2.718281828459045 0.36787944117144233 1.0 1.0 2.718281828459045 0.36787944117144233 1.0 1.0 2.718281828459045 0.36787944117144233 2.718281828459045 0.36787944117144233 2.718281828459045 0.36787944117144233 2.718281828459045 0.36787944117144233 2.718281828459045 0.36787944117144233 2.718281828459045 0.36787944117144233 2.718281828459045 0.36787944117144233 1.0 1.0 2.718281828459045 0.36787944117144233 2.718281828459045 0.36787944117144233 2.718281828459045 0.36787944117144233 2.718281828459045 0.36787944117144233 2.718281828459045 0.36787944117144233 2.718281828459045 0.36787944117144233 1.0 1.0 2.718281828459045 0.36787944117144233 2.718281828459045 0.36787944117144233 2.718281828459045 0.36787944117144233 1.0 1.0 2.718281828459045 0.36787944117144233 2.718281828459045 0.36787944117144233 2.718281828459045 0.36787944117144233 2.718281828459045 0.36787944117144233 2.718281828459045 0.36787944117144233 1.0 1.0 2.718281828459045 0.36787944117144233 2.718281828459045 0.36787944117144233 2.718281828459045 0.36787944117144233 2.718281828459045 0.36787944117144233 1.0 1.0 2.718281828459045 0.36787944117144233 2.718281828459045 0.36787944117144233 2.718281828459045 0.36787944117144233 1.0 1.0 2.718281828459045 0.36787944117144233 2.718281828459045 0.36787944117144233 1.0 1.0 2.718281828459045 0.36787944117144233 2.718281828459045 0.36787944117144233 1.0 1.0 2.718281828459045 0.36787944117144233 2.718281828459045 0.36787944117144233 2.718281828459045 0.36787944117144233 2.718281828459045 0.36787944117144233 2.718281828459045 0.36787944117144233 1.0 1.0 2.718281828459045 0.36787944117144233 2.718281828459045 0.36787944117144233 2.718281828459045 0.36787944117144233 2.718281828459045 0.36787944117144233 2.718281828459045 0.36787944117144233 2.718281828459045 0.36787944117144233 1.0 1.0 2.718281828459045 0.36787944117144233 2.718281828459045 0.36787944117144233 2.718281828459045 0.36787944117144233 2.718281828459045 0.36787944117144233 2.718281828459045 0.36787944117144233 2.718281828459045 0.36787944117144233 2.718281828459045 0.36787944117144233 2.718281828459045 0.36787944117144233 1.0 1.0 2.718281828459045 0.36787944117144233 1.0 1.0 2.718281828459045 0.36787944117144233 1.0 1.0 2.718281828459045 0.36787944117144233 1.0 1.0 2.718281828459045 0.36787944117144233 2.718281828459045 0.36787944117144233 1.0 1.0 2.718281828459045 0.36787944117144233 2.718281828459045 0.36787944117144233 2.718281828459045 0.36787944117144233 2.718281828459045 0.36787944117144233 1.0 1.0 2.718281828459045 0.36787944117144233 2.718281828459045 0.36787944117144233 2.718281828459045 0.36787944117144233 2.718281828459045 0.36787944117144233 2.718281828459045 0.36787944117144233 1.0 1.0 2.718281828459045 0.36787944117144233 2.718281828459045 0.36787944117144233 2.718281828459045 0.36787944117144233 2.718281828459045 0.36787944117144233 2.718281828459045 0.36787944117144233 2.718281828459045 0.36787944117144233 1.0 1.0 2.718281828459045 0.36787944117144233 2.718281828459045 0.36787944117144233 2.718281828459045 0.36787944117144233 2.718281828459045 0.36787944117144233 1.0 1.0 2.718281828459045 0.36787944117144233 2.718281828459045 0.36787944117144233 1.0 1.0 2.718281828459045 0.36787944117144233 2.718281828459045 0.36787944117144233 1.0 1.0 2.718281828459045 0.36787944117144233 2.718281828459045 0.36787944117144233 2.718281828459045 0.36787944117144233 2.718281828459045 0.36787944117144233 2.718281828459045 0.36787944117144233 1.0 1.0 2.718281828459045 0.36787944117144233 2.718281828459045 0.36787944117144233 2.718281828459045 0.36787944117144233 2.718281828459045 0.36787944117144233 2.718281828459045 0.36787944117144233 2.718281828459045 0.36787944117144233 2.718281828459045 0.36787944117144233 1.0 1.0 2.718281828459045 0.36787944117144233 2.718281828459045 0.36787944117144233 2.718281828459045 0.36787944117144233 2.718281828459045 0.36787944117144233 2.718281828459045 0.36787944117144233 1.0 1.0 2.718281828459045 0.36787944117144233 2.718281828459045 0.36787944117144233 2.718281828459045 0.36787944117144233 1.0 1.0 2.718281828459045 0.36787944117144233 2.718281828459045 0.36787944117144233 2.718281828459045 0.36787944117144233 1.0 1.0 2.718281828459045 0.36787944117144233 2.718281828459045 0.36787944117144233 2.718281828459045 0.36787944117144233 2.718281828459045 0.36787944117144233 2.718281828459045 0.36787944117144233 2.718281828459045 0.36787944117144233 1.0 1.0 2.718281828459045 0.36787944117144233 2.718281828459045 0.36787944117144233 2.718281828459045 0.36787944117144233 2.718281828459045 0.36787944117144233 2.718281828459045 0.36787944117144233 1.0 1.0 2.718281828459045 0.36787944117144233 2.718281828459045 0.36787944117144233 2.718281828459045 0.36787944117144233 1.0 1.0 2.718281828459045 0.36787944117144233 2.718281828459045 0.36787944117144233 2.718281828459045 0.36787944117144233 1.0 1.0 2.718281828459045 0.36787944117144233 2.718281828459045 0.36787944117144233 1.0 1.0 2.718281828459045 0.36787944117144233 2.718281828459045 0.36787944117144233 2.718281828459045 0.36787944117144233 1.0 1.0 2.718281828459045 0.36787944117144233 2.718281828459045 0.36787944117144233 1.0 1.0 2.718281828459045 0.36787944117144233 2.718281828459045 0.36787944117144233 2.718281828459045 0.36787944117144233 2.718281828459045 0.36787944117144233 2.718281828459045 0.36787944117144233 2.718281828459045 0.36787944117144233 1.0 1.0 1.0 1.0 2.718281828459045 0.36787944117144233 1.0 1.0 2.718281828459045 0.36787944117144233 2.718281828459045 0.36787944117144233 2.718281828459045 0.36787944117144233 2.718281828459045 0.36787944117144233 2.718281828459045 0.36787944117144233 1.0 1.0 2.718281828459045 0.36787944117144233 2.718281828459045 0.36787944117144233 2.718281828459045 0.36787944117144233 2.718281828459045 0.36787944117144233 2.718281828459045 0.36787944117144233 2.718281828459045 0.36787944117144233 1.0 1.0 2.718281828459045 0.36787944117144233 2.718281828459045 0.36787944117144233 1.0 1.0 2.718281828459045 0.36787944117144233 2.718281828459045 0.36787944117144233 1.0 1.0 2.718281828459045 0.36787944117144233 2.718281828459045 0.36787944117144233 2.718281828459045 0.36787944117144233 2.718281828459045 0.36787944117144233 1.0 1.0 2.718281828459045 0.36787944117144233 2.718281828459045 0.36787944117144233 2.718281828459045 0.36787944117144233 1.0 1.0 2.718281828459045 0.36787944117144233 1.0 1.0 2.718281828459045 0.36787944117144233 2.718281828459045 0.36787944117144233 2.718281828459045 0.36787944117144233 1.0 1.0 2.718281828459045 0.36787944117144233 2.718281828459045 0.36787944117144233 1.0 1.0 2.718281828459045 0.36787944117144233 1.0 1.0 2.718281828459045 0.36787944117144233 2.718281828459045 0.36787944117144233 2.718281828459045 0.36787944117144233 2.718281828459045 0.36787944117144233 1.0 1.0 2.718281828459045 0.36787944117144233 2.718281828459045 0.36787944117144233 2.718281828459045 0.36787944117144233 1.0 1.0 2.718281828459045 0.36787944117144233 2.718281828459045 0.36787944117144233 1.0 1.0 2.718281828459045 0.36787944117144233 2.718281828459045 0.36787944117144233 2.718281828459045 0.36787944117144233 2.718281828459045 0.36787944117144233 2.718281828459045 0.36787944117144233 2.718281828459045 0.36787944117144233 1.0 1.0 2.718281828459045 0.36787944117144233 2.718281828459045 0.36787944117144233 2.718281828459045 0.36787944117144233 1.0 1.0 1.0 1.0 2.718281828459045 0.36787944117144233 2.718281828459045 0.36787944117144233 1.0 1.0 2.718281828459045 0.36787944117144233 1.0 1.0 2.718281828459045 0.36787944117144233 1.0 1.0 2.718281828459045 0.36787944117144233 2.718281828459045 0.36787944117144233 1.0 1.0 2.718281828459045 0.36787944117144233 2.718281828459045 0.36787944117144233 2.718281828459045 0.36787944117144233 2.718281828459045 0.36787944117144233 2.718281828459045 0.36787944117144233 1.0 1.0 2.718281828459045 0.36787944117144233 1.0 1.0 2.718281828459045 0.36787944117144233 2.718281828459045 0.36787944117144233 2.718281828459045 0.36787944117144233 1.0 1.0 2.718281828459045 0.36787944117144233 2.718281828459045 0.36787944117144233 2.718281828459045 0.36787944117144233 2.718281828459045 0.36787944117144233 1.0 1.0 2.718281828459045 0.36787944117144233 2.718281828459045 0.36787944117144233 2.718281828459045 0.36787944117144233 1.0 1.0 2.718281828459045 0.36787944117144233 2.718281828459045 0.36787944117144233 2.718281828459045 0.36787944117144233 1.0 1.0 2.718281828459045 0.36787944117144233 1.0 1.0 2.718281828459045 0.36787944117144233 2.718281828459045 0.36787944117144233 1.0 1.0 2.718281828459045 0.36787944117144233 2.718281828459045 0.36787944117144233 1.0 1.0 1.0 1.0 2.718281828459045 0.36787944117144233 1.0 1.0 1.0 1.0 2.718281828459045 0.36787944117144233 2.718281828459045 0.36787944117144233 1.0 1.0 2.718281828459045 0.36787944117144233 2.718281828459045 0.36787944117144233 1.0 1.0 2.718281828459045 0.36787944117144233 2.718281828459045 0.36787944117144233 2.718281828459045 0.36787944117144233 1.0 1.0 2.718281828459045 0.36787944117144233 2.718281828459045 0.36787944117144233 2.718281828459045 0.36787944117144233 1.0 1.0 2.718281828459045 0.36787944117144233 2.718281828459045 0.36787944117144233 1.0 1.0 1.0 1.0 1.0 1.0 2.718281828459045 0.36787944117144233 1.0 1.0 1.0 1.0 2.718281828459045 0.36787944117144233 1.0 1.0 2.718281828459045 0.36787944117144233 2.718281828459045 0.36787944117144233 1.0 1.0 2.718281828459045 0.36787944117144233 2.718281828459045 0.36787944117144233 2.718281828459045 0.36787944117144233 1.0 1.0 2.718281828459045 0.36787944117144233 1.0 1.0 2.718281828459045 0.36787944117144233 1.0 1.0 2.718281828459045 0.36787944117144233 2.718281828459045 0.36787944117144233 1.0 1.0 2.718281828459045 0.36787944117144233 2.718281828459045 0.36787944117144233 2.718281828459045 0.36787944117144233 1.0 1.0 1.0 1.0 2.718281828459045 0.36787944117144233 1.0 1.0 1.0 1.0 1.0 1.0 2.718281828459045 0.36787944117144233 1.0 1.0 2.718281828459045 0.36787944117144233 2.718281828459045 0.36787944117144233 2.718281828459045 0.36787944117144233 1.0 1.0 2.718281828459045 0.36787944117144233 1.0 1.0 2.718281828459045 0.36787944117144233 1.0 1.0 2.718281828459045 0.36787944117144233 1.0 1.0 2.718281828459045 0.36787944117144233 2.718281828459045 0.36787944117144233 1.0 1.0 2.718281828459045 0.36787944117144233 2.718281828459045 0.36787944117144233 1.0 1.0 2.718281828459045 0.36787944117144233 1.0 1.0 1.0 1.0 1.0 1.0 1.0 1.0 2.718281828459045 0.36787944117144233 2.718281828459045 0.36787944117144233 2.718281828459045 0.36787944117144233 1.0 1.0 1.0 1.0 1.0 1.0 1.0 1.0 2.718281828459045 0.36787944117144233 2.718281828459045 0.36787944117144233 1.0 1.0 1.0 1.0 1.0 1.0 1.0 1.0 1.0 1.0 1.0 1.0 1.0 1.0 1.0 1.0 1.0 1.0 1.0 1.0
2 1 112 0
2 -1 -112 0
-2 1 -112 0
-2 -1 112 0
3 1 118 0
3 -1 -118 0
-3 1 -118 0
-3 -1 118 0
4 1 169 0
4 -1 -169 0
-4 1 -169 0
-4 -1 169 0
5 1 306 0
5 -1 -306 0
-5 1 -306 0
-5 -1 306 0
6 1 375 0
6 -1 -375 0
-6 1 -375 0
-6 -1 375 0
7 1 442 0
7 -1 -442 0
-7 1 -442 0
-7 -1 442 0
9 8 228 0
9 -8 -228 0
-9 8 -228 0
-9 -8 228 0
10 8 238 0
10 -8 -238 0
-10 8 -238 0
-10 -8 238 0
11 8 262 0
11 -8 -262 0
-11 8 -262 0
-11 -8 262 0
12 8 290 0
12 -8 -290 0
-12 8 -290 0
-12 -8 290 0
13 8 440 0
13 -8 -440 0
-13 8 -440 0
-13 -8 440 0
14 8 448 0
14 -8 -448 0
-14 8 -448 0
-14 -8 448 0
16 15 64 0
16 -15 -64 0
-16 15 -64 0
-16 -15 64 0
17 15 157 0
17 -15 -157 0
-17 15 -157 0
-17 -15 157 0
18 15 242 0
18 -15 -242 0
-18 15 -242 0
-18 -15 242 0
20 19 51 0
20 -19 -51 0
-20 19 -51 0
-20 -19 51 0
21 19 234 0
21 -19 -234 0
-21 19 -234 0
-21 -19 234 0
22 19 352 0
22 -19 -352 0
-22 19 -352 0
-22 -19 352 0
23 19 369 0
23 -19 -369 0
-23 19 -369 0
-23 -19 369 0
24 19 372 0
24 -19 -372 0
-24 19 -372 0
-24 -19 372 0
25 19 382 0
25 -19 -382 0
-25 19 -382 0
-25 -19 382 0
26 19 394 0
26 -19 -394 0
-26 19 -394 0
-26 -19 394 0
27 19 421 0
27 -19 -421 0
-27 19 -421 0
-27 -19 421 0
28 19 448 0
28 -19 -448 0
-28 19 -448 0
-28 -19 448 0
29 19 459 0
29 -19 -459 0
-29 19 -459 0
-29 -19 459 0
31 30 118 0
31 -30 -118 0
-31 30 -118 0
-31 -30 118 0
32 30 292 0
32 -30 -292 0
-32 30 -292 0
-32 -30 292 0
33 30 310 0
33 -30 -310 0
-33 30 -310 0
-33 -30 310 0
34 30 386 0
34 -30 -386 0
-34 30 -386 0
-34 -30 386 0
35 30 403 0
35 -30 -403 0
-35 30 -403 0
-35 -30 403 0
36 30 427 0
36 -30 -427 0
-36 30 -427 0
-36 -30 427 0
38 37 249 0
38 -37 -249 0
-38 37 -249 0
-38 -37 249 0
39 37 290 0
39 -37 -290 0
-39 37 -290 0
-39 -37 290 0
40 37 371 0
40 -37 -371 0
-40 37 -371 0
-40 -37 371 0
41 37 405 0
41 -37 -405 0
-41 37 -405 0
-41 -37 405 0
43 42 221 0
43 -42 -221 0
-43 42 -221 0
-43 -42 221 0
44 42 299 0
44 -42 -299 0
-44 42 -299 0
-44 -42 299 0
45 42 415 0
45 -42 -415 0
-45 42 -415 0
-45 -42 415 0
46 42 456 0
46 -42 -456 0
-46 42 -456 0
-46 -42 456 0
48 47 159 0
48 -47 -159 0
-48 47 -159 0
-48 -47 159 0
49 47 382 0
49 -47 -382 0
-49 47 -382 0
-49 -47 382 0
50 47 429 0
50 -47 -429 0
-50 47 -429 0
-50 -47 429 0
52 51 130 0
52 -51 -130 0
-52 51 -130 0
-52 -51 130 0
53 51 146 0
53 -51 -146 0
-53 51 -146 0
-53 -51 146 0
54 51 190 0
54 -51 -190 0
-54 51 -190 0
-54 -51 190 0
55 51 242 0
55 -51 -242 0
-55 51 -242 0
-55 -51 242 0
56 51 275 0
56 -51 -275 0
-56 51 -275 0
-56 -51 275 0
57 51 332 0
57 -51 -332 0
-57 51 -332 0
-57 -51 332 0
58 51 425 0
58 -51 -425 0
-58 51 -425 0
-58 -51 425 0
59 51 434 0
59 -51 -434 0
-59 51 -434 0
-59 -51 434 0
61 60 164 0
61 -60 -164 0
-61 60 -164 0
-61 -60 164 0
62 60 328 0
62 -60 -328 0
-62 60 -328 0
-62 -60 328 0
63 60 360 0
63 -60 -360 0
-63 60 -360 0
-63 -60 360 0
65 64 207 0
65 -64 -207 0
-65 64 -207 0
-65 -64 207 0
66 64 306 0
66 -64 -306 0
-66 64 -306 0
-66 -64 306 0
67 64 356 0
67 -64 -356 0
-67 64 -356 0
-67 -64 356 0
68 64 368 0
68 -64 -368 0
-68 64 -368 0
-68 -64 368 0
69 64 371 0
69 -64 -371 0
-69 64 -371 0
-69 -64 371 0
70 64 442 0
70 -64 -442 0
-70 64 -442 0
-70 -64 442 0
72 71 217 0
72 -71 -217 0
-72 71 -217 0
-72 -71 217 0
73 71 275 0
73 -71 -275 0
-73 71 -275 0
-73 -71 275 0
74 71 292 0
74 -71 -292 0
-74 71 -292 0
-74 -71 292 0
75 71 389 0
75 -71 -389 0
-75 71 -389 0
-75 -71 389 0
76 71 456 0
76 -71 -456 0
-76 71 -456 0
-76 -71 456 0
78 77 130 0
78 -77 -130 0
-78 77 -130 0
-78 -77 130 0
79 77 245 0
79 -77 -245 0
-79 77 -245 0
-79 -77 245 0
80 77 275 0
80 -77 -275 0
-80 77 -275 0
-80 -77 275 0
81 77 299 0
81 -77 -299 0
-81 77 -299 0
-81 -77 299 0
82 77 330 0
82 -77 -330 0
-82 77 -330 0
-82 -77 330 0
83 77 390 0
83 -77 -390 0
-83 77 -390 0
-83 -77 390 0
85 84 155 0
85 -84 -155 0
-85 84 -155 0
-85 -84 155 0
86 84 190 0
86 -84 -190 0
-86 84 -190 0
-86 -84 190 0
87 84 394 0
87 -84 -394 0
-87 84 -394 0
-87 -84 394 0
89 88 169 0
89 -88 -169 0
-89 88 -169 0
-89 -88 169 0
90 88 332 0
90 -88 -332 0
-90 88 -332 0
-90 -88 332 0
92 91 360 0
92 -91 -360 0
-92 91 -360 0
-92 -91 360 0
94 93 101 0
94 -93 -101 0
-94 93 -101 0
-94 -93 101 0
95 93 245 0
95 -93 -245 0
-95 93 -245 0
-95 -93 245 0
96 93 296 0
96 -93 -296 0
-96 93 -296 0
-96 -93 296 0
97 93 310 0
97 -93 -310 0
-97 93 -310 0
-97 -93 310 0
98 93 347 0
98 -93 -347 0
-98 93 -347 0
-98 -93 347 0
99 93 414 0
99 -93 -414 0
-99 93 -414 0
-99 -93 414 0
100 93 456 0
100 -93 -456 0
-100 93 -456 0
-100 -93 456 0
102 101 207 0
102 -101 -207 0
-102 101 -207 0
-102 -101 207 0
103 101 221 0
103 -101 -221 0
-103 101 -221 0
-103 -101 221 0
104 101 245 0
104 -101 -245 0
-104 101 -245 0
-104 -101 245 0
105 101 330 0
105 -101 -330 0
-105 101 -330 0
-105 -101 330 0
106 101 437 0
106 -101 -437 0
-106 101 -437 0
-106 -101 437 0
107 101 456 0
107 -101 -456 0
-107 101 -456 0
-107 -101 456 0
109 108 190 0
109 -108 -190 0
-109 108 -190 0
-109 -108 190 0
110 108 365 0
110 -108 -365 0
-110 108 -365 0
-110 -108 365 0
111 108 440 0
111 -108 -440 0
-111 108 -440 0
-111 -108 440 0
113 112 164 0
113 -112 -164 0
-113 112 -164 0
-113 -112 164 0
114 112 245 0
114 -112 -245 0
-114 112 -245 0
-114 -112 245 0
115 112 313 0
115 -112 -313 0
-115 112 -313 0
-115 -112 313 0
116 112 382 0
116 -112 -382 0
-116 112 -382 0
-116 -112 382 0
117 112 417 0
117 -112 -417 0
-117 112 -417 0
-117 -112 417 0
119 118 371 0
119 -118 -371 0
-119 118 -371 0
-119 -118 371 0
120 118 421 0
120 -118 -421 0
-120 118 -421 0
-120 -118 421 0
121 118 431 0
121 -118 -431 0
-121 118 -431 0
-121 -118 431 0
122 118 457 0
122 -118 -457 0
-122 118 -457 0
-122 -118 457 0
124 123 193 0
124 -123 -193 0
-124 123 -193 0
-124 -123 193 0
125 123 421 0
125 -123 -421 0
-125 123 -421 0
-125 -123 421 0
126 123 439 0
126 -123 -439 0
-126 123 -439 0
-126 -123 439 0
128 127 278 0
128 -127 -278 0
-128 127 -278 0
-128 -127 278 0
129 127 378 0
129 -127 -378 0
-129 127 -378 0
-129 -127 378 0
131 130 238 0
131 -130 -238 0
-131 130 -238 0
-131 -130 238 0
132 130 332 0
132 -130 -332 0
-132 130 -332 0
-132 -130 332 0
134 133 175 0
134 -133 -175 0
-134 133 -175 0
-134 -133 175 0
135 133 207 0
135 -133 -207 0
-135 133 -207 0
-135 -133 207 0
136 133 249 0
136 -133 -249 0
-136 133 -249 0
-136 -133 249 0
137 133 375 0
137 -133 -375 0
-137 133 -375 0
-137 -133 375 0
138 133 407 0
138 -133 -407 0
-138 133 -407 0
-138 -133 407 0
140 139 343 0
140 -139 -343 0
-140 139 -343 0
-140 -139 343 0
141 139 352 0
141 -139 -352 0
-141 139 -352 0
-141 -139 352 0
142 139 396 0
142 -139 -396 0
-142 139 -396 0
-142 -139 396 0
143 139 419 0
143 -139 -419 0
-143 139 -419 0
-143 -139 419 0
144 139 431 0
144 -139 -431 0
-144 139 -431 0
-144 -139 431 0
145 139 449 0
145 -139 -449 0
-145 139 -449 0
-145 -139 449 0
147 146 190 0
147 -146 -190 0
-147 146 -190 0
-147 -146 190 0
148 146 213 0
148 -146 -213 0
-148 146 -213 0
-148 -146 213 0
149 146 275 0
149 -146 -275 0
-149 146 -275 0
-149 -146 275 0
150 146 325 0
150 -146 -325 0
-150 146 -325 0
-150 -146 325 0
151 146 403 0
151 -146 -403 0
-151 146 -403 0
-151 -146 403 0
152 146 419 0
152 -146 -419 0
-152 146 -419 0
-152 -146 419 0
153 146 425 0
153 -146 -425 0
-153 146 -425 0
-153 -146 425 0
154 146 427 0
154 -146 -427 0
-154 146 -427 0
-154 -146 427 0
156 155 405 0
156 -155 -405 0
-156 155 -405 0
-156 -155 405 0
158 157 281 0
158 -157 -281 0
-158 157 -281 0
-158 -157 281 0
160 159 217 0
160 -159 -217 0
-160 159 -217 0
-160 -159 217 0
162 161 418 0
162 -161 -418 0
-162 161 -418 0
-162 -161 418 0
163 161 429 0
163 -161 -429 0
-163 161 -429 0
-163 -161 429 0
165 164 259 0
165 -164 -259 0
-165 164 -259 0
-165 -164 259 0
166 164 330 0
166 -164 -330 0
-166 164 -330 0
-166 -164 330 0
167 164 335 0
167 -164 -335 0
-167 164 -335 0
-167 -164 335 0
168 164 389 0
168 -164 -389 0
-168 164 -389 0
-168 -164 389 0
170 169 187 0
170 -169 -187 0
-170 169 -187 0
-170 -169 187 0
171 169 290 0
171 -169 -290 0
-171 169 -290 0
-171 -169 290 0
172 169 306 0
172 -169 -306 0
-172 169 -306 0
-172 -169 306 0
173 169 328 0
173 -169 -328 0
-173 169 -328 0
-173 -169 328 0
174 169 382 0
174 -169 -382 0
-174 169 -382 0
-174 -169 382 0
176 175 299 0
176 -175 -299 0
-176 175 -299 0
-176 -175 299 0
177 175 306 0
177 -175 -306 0
-177 175 -306 0
-177 -175 306 0
178 175 324 0
178 -175 -324 0
-178 175 -324 0
-178 -175 324 0
179 175 365 0
179 -175 -365 0
-179 175 -365 0
-179 -175 365 0
180 175 447 0
180 -175 -447 0
-180 175 -447 0
-180 -175 447 0
181 175 457 0
181 -175 -457 0
-181 175 -457 0
-181 -175 457 0
183 182 262 0
183 -182 -262 0
-183 182 -262 0
-183 -182 262 0
184 182 306 0
184 -182 -306 0
-184 182 -306 0
-184 -182 306 0
185 182 421 0
185 -182 -421 0
-185 182 -421 0
-185 -182 421 0
186 182 441 0
186 -182 -441 0
-186 182 -441 0
-186 -182 441 0
188 187 310 0
188 -187 -310 0
-188 187 -310 0
-188 -187 310 0
189 187 437 0
189 -187 -437 0
-189 187 -437 0
-189 -187 437 0
191 190 228 0
191 -190 -228 0
-191 190 -228 0
-191 -190 228 0
192 190 442 0
192 -190 -442 0
-192 190 -442 0
-192 -190 442 0
194 193 234 0
194 -193 -234 0
-194 193 -234 0
-194 -193 234 0
195 193 278 0
195 -193 -278 0
-195 193 -278 0
-195 -193 278 0
196 193 341 0
196 -193 -341 0
-196 193 -341 0
-196 -193 341 0
197 193 425 0
197 -193 -425 0
-197 193 -425 0
-197 -193 425 0
198 193 460 0
198 -193 -460 0
-198 193 -460 0
-198 -193 460 0
200 199 262 0
200 -199 -262 0
-200 199 -262 0
-200 -199 262 0
201 199 330 0
201 -199 -330 0
-201 199 -330 0
-201 -199 330 0
202 199 352 0
202 -199 -352 0
-202 199 -352 0
-202 -199 352 0
203 199 394 0
203 -199 -394 0
-203 199 -394 0
-203 -199 394 0
204 199 407 0
204 -199 -407 0
-204 199 -407 0
-204 -199 407 0
205 199 437 0
205 -199 -437 0
-205 199 -437 0
-205 -199 437 0
206 199 460 0
206 -199 -460 0
-206 199 -460 0
-206 -199 460 0
208 207 262 0
208 -207 -262 0
-208 207 -262 0
-208 -207 262 0
209 207 296 0
209 -207 -296 0
-209 207 -296 0
-209 -207 296 0
210 207 325 0
210 -207 -325 0
-210 207 -325 0
-210 -207 325 0
211 207 389 0
211 -207 -389 0
-211 207 -389 0
-211 -207 389 0
212 207 440 0
212 -207 -440 0
-212 207 -440 0
-212 -207 440 0
214 213 259 0
214 -213 -259 0
-214 213 -259 0
-214 -213 259 0
215 213 417 0
215 -213 -417 0
-215 213 -417 0
-215 -213 417 0
216 213 452 0
216 -213 -452 0
-216 213 -452 0
-216 -213 452 0
218 217 417 0
218 -217 -417 0
-218 217 -417 0
-218 -217 417 0
219 217 455 0
219 -217 -455 0
-219 217 -455 0
-219 -217 455 0
220 217 459 0
220 -217 -459 0
-220 217 -459 0
-220 -217 459 0
222 221 242 0
222 -221 -242 0
-222 221 -242 0
-222 -221 242 0
223 221 249 0
223 -221 -249 0
-223 221 -249 0
-223 -221 249 0
224 221 259 0
224 -221 -259 0
-224 221 -259 0
-224 -221 259 0
225 221 275 0
225 -221 -275 0
-225 221 -275 0
-225 -221 275 0
226 221 356 0
226 -221 -356 0
-226 221 -356 0
-226 -221 356 0
227 221 425 0
227 -221 -425 0
-227 221 -425 0
-227 -221 425 0
229 228 234 0
229 -228 -234 0
-229 228 -234 0
-229 -228 234 0
230 228 320 0
230 -228 -320 0
-230 228 -320 0
-230 -228 320 0
231 228 372 0
231 -228 -372 0
-231 228 -372 0
-231 -228 372 0
232 228 391 0
232 -228 -391 0
-232 228 -391 0
-232 -228 391 0
233 228 427 0
233 -228 -427 0
-233 228 -427 0
-233 -228 427 0
235 234 299 0
235 -234 -299 0
-235 234 -299 0
-235 -234 299 0
236 234 369 0
236 -234 -369 0
-236 234 -369 0
-236 -234 369 0
237 234 439 0
237 -234 -439 0
-237 234 -439 0
-237 -234 439 0
239 238 290 0
239 -238 -290 0
-239 238 -290 0
-239 -238 290 0
240 238 347 0
240 -238 -347 0
-240 238 -347 0
-240 -238 347 0
241 238 456 0
241 -238 -456 0
-241 238 -456 0
-241 -238 456 0
243 242 439 0
243 -242 -439 0
-243 242 -439 0
-243 -242 439 0
244 242 453 0
244 -242 -453 0
-244 242 -453 0
-244 -242 453 0
246 245 330 0
246 -245 -330 0
-246 245 -330 0
-246 -245 330 0
247 245 332 0
247 -245 -332 0
-247 245 -332 0
-247 -245 332 0
248 245 419 0
248 -245 -419 0
-248 245 -419 0
-248 -245 419 0
250 249 310 0
250 -249 -310 0
-250 249 -310 0
-250 -249 310 0
251 249 325 0
251 -249 -325 0
-251 249 -325 0
-251 -249 325 0
253 252 278 0
253 -252 -278 0
-253 252 -278 0
-253 -252 278 0
254 252 330 0
254 -252 -330 0
-254 252 -330 0
-254 -252 330 0
255 252 405 0
255 -252 -405 0
-255 252 -405 0
-255 -252 405 0
256 252 419 0
256 -252 -419 0
-256 252 -419 0
-256 -252 419 0
257 252 454 0
257 -252 -454 0
-257 252 -454 0
-257 -252 454 0
258 252 461 0
258 -252 -461 0
-258 252 -461 0
-258 -252 461 0
261 260 419 0
261 -260 -419 0
-261 260 -419 0
-261 -260 419 0
263 262 268 0
263 -262 -268 0
-263 262 -268 0
-263 -262 268 0
264 262 290 0
264 -262 -290 0
-264 262 -290 0
-264 -262 290 0
265 262 299 0
265 -262 -299 0
-265 262 -299 0
-265 -262 299 0
266 262 360 0
266 -262 -360 0
-266 262 -360 0
-266 -262 360 0
267 262 425 0
267 -262 -425 0
-267 262 -425 0
-267 -262 425 0
269 268 332 0
269 -268 -332 0
-269 268 -332 0
-269 -268 332 0
270 268 341 0
270 -268 -341 0
-270 268 -341 0
-270 -268 341 0
271 268 403 0
271 -268 -403 0
-271 268 -403 0
-271 -268 403 0
272 268 437 0
272 -268 -437 0
-272 268 -437 0
-272 -268 437 0
273 268 447 0
273 -268 -447 0
-273 268 -447 0
-273 -268 447 0
274 268 459 0
274 -268 -459 0
-274 268 -459 0
-274 -268 459 0
276 275 425 0
276 -275 -425 0
-276 275 -425 0
-276 -275 425 0
277 275 442 0
277 -275 -442 0
-277 275 -442 0
-277 -275 442 0
279 278 368 0
279 -278 -368 0
-279 278 -368 0
-279 -278 368 0
280 278 407 0
280 -278 -407 0
-280 278 -407 0
-280 -278 407 0
282 281 324 0
282 -281 -324 0
-282 281 -324 0
-282 -281 324 0
283 281 399 0
283 -281 -399 0
-283 281 -399 0
-283 -281 399 0
284 281 437 0
284 -281 -437 0
-284 281 -437 0
-284 -281 437 0
285 281 446 0
285 -281 -446 0
-285 281 -446 0
-285 -281 446 0
287 286 325 0
287 -286 -325 0
-287 286 -325 0
-287 -286 325 0
288 286 453 0
288 -286 -453 0
-288 286 -453 0
-288 -286 453 0
289 286 454 0
289 -286 -454 0
-289 286 -454 0
-289 -286 454 0
291 290 454 0
291 -290 -454 0
-291 290 -454 0
-291 -290 454 0
293 292 391 0
293 -292 -391 0
-293 292 -391 0
-293 -292 391 0
294 292 421 0
294 -292 -421 0
-294 292 -421 0
-294 -292 421 0
295 292 446 0
295 -292 -446 0
-295 292 -446 0
-295 -292 446 0
297 296 313 0
297 -296 -313 0
-297 296 -313 0
-297 -296 313 0
298 296 459 0
298 -296 -459 0
-298 296 -459 0
-298 -296 459 0
300 299 439 0
300 -299 -439 0
-300 299 -439 0
-300 -299 439 0
302 301 310 0
302 -301 -310 0
-302 301 -310 0
-302 -301 310 0
303 301 389 0
303 -301 -389 0
-303 301 -389 0
-303 -301 389 0
304 301 439 0
304 -301 -439 0
-304 301 -439 0
-304 -301 439 0
305 301 461 0
305 -301 -461 0
-305 301 -461 0
-305 -301 461 0
307 306 369 0
307 -306 -369 0
-307 306 -369 0
-307 -306 369 0
308 306 448 0
308 -306 -448 0
-308 306 -448 0
-308 -306 448 0
309 306 454 0
309 -306 -454 0
-309 306 -454 0
-309 -306 454 0
311 310 330 0
311 -310 -330 0
-311 310 -330 0
-311 -310 330 0
312 310 390 0
312 -310 -390 0
-312 310 -390 0
-312 -310 390 0
314 313 372 0
314 -313 -372 0
-314 313 -372 0
-314 -313 372 0
315 313 407 0
315 -313 -407 0
-315 313 -407 0
-315 -313 407 0
316 313 421 0
316 -313 -421 0
-316 313 -421 0
-316 -313 421 0
317 313 442 0
317 -313 -442 0
-317 313 -442 0
-317 -313 442 0
318 313 454 0
318 -313 -454 0
-318 313 -454 0
-318 -313 454 0
319 313 458 0
319 -313 -458 0
-319 313 -458 0
-319 -313 458 0
321 320 341 0
321 -320 -341 0
-321 320 -341 0
-321 -320 341 0
322 320 390 0
322 -320 -390 0
-322 320 -390 0
-322 -320 390 0
323 320 439 0
323 -320 -439 0
-323 320 -439 0
-323 -320 439 0
326 325 360 0
326 -325 -360 0
-326 325 -360 0
-326 -325 360 0
327 325 458 0
327 -325 -458 0
-327 325 -458 0
-327 -325 458 0
329 328 332 0
329 -328 -332 0
-329 328 -332 0
-329 -328 332 0
331 330 362 0
331 -330 -362 0
-331 330 -362 0
-331 -330 362 0
333 332 362 0
333 -332 -362 0
-333 332 -362 0
-333 -332 362 0
334 332 386 0
334 -332 -386 0
-334 332 -386 0
-334 -332 386 0
336 335 369 0
336 -335 -369 0
-336 335 -369 0
-336 -335 369 0
337 335 394 0
337 -335 -394 0
-337 335 -394 0
-337 -335 394 0
338 335 417 0
338 -335 -417 0
-338 335 -417 0
-338 -335 417 0
339 335 437 0
339 -335 -437 0
-339 335 -437 0
-339 -335 437 0
340 335 446 0
340 -335 -446 0
-340 335 -446 0
-340 -335 446 0
342 341 347 0
342 -341 -347 0
-342 341 -347 0
-342 -341 347 0
344 343 393 0
344 -343 -393 0
-344 343 -393 0
-344 -343 393 0
345 343 439 0
345 -343 -439 0
-345 343 -439 0
-345 -343 439 0
346 343 453 0
346 -343 -453 0
-346 343 -453 0
-346 -343 453 0
348 347 396 0
348 -347 -396 0
-348 347 -396 0
-348 -347 396 0
349 347 421 0
349 -347 -421 0
-349 347 -421 0
-349 -347 421 0
350 347 448 0
350 -347 -448 0
-350 347 -448 0
-350 -347 448 0
351 347 456 0
351 -347 -456 0
-351 347 -456 0
-351 -347 456 0
353 352 386 0
353 -352 -386 0
-353 352 -386 0
-353 -352 386 0
354 352 418 0
354 -352 -418 0
-354 352 -418 0
-354 -352 418 0
355 352 449 0
355 -352 -449 0
-355 352 -449 0
-355 -352 449 0
357 356 405 0
357 -356 -405 0
-357 356 -405 0
-357 -356 405 0
358 356 431 0
358 -356 -431 0
-358 356 -431 0
-358 -356 431 0
359 356 437 0
359 -356 -437 0
-359 356 -437 0
-359 -356 437 0
361 360 441 0
361 -360 -441 0
-361 360 -441 0
-361 -360 441 0
363 362 390 0
363 -362 -390 0
-363 362 -390 0
-363 -362 390 0
364 362 414 0
364 -362 -414 0
-364 362 -414 0
-364 -362 414 0
366 365 403 0
366 -365 -403 0
-366 365 -403 0
-366 -365 403 0
367 365 458 0
367 -365 -458 0
-367 365 -458 0
-367 -365 458 0
370 369 434 0
370 -369 -434 0
-370 369 -434 0
-370 -369 434 0
373 372 415 0
373 -372 -415 0
-373 372 -415 0
-373 -372 415 0
374 372 454 0
374 -372 -454 0
-374 372 -454 0
-374 -372 454 0
376 375 429 0
376 -375 -429 0
-376 375 -429 0
-376 -375 429 0
377 375 455 0
377 -375 -455 0
-377 375 -455 0
-377 -375 455 0
379 378 396 0
379 -378 -396 0
-379 378 -396 0
-379 -378 396 0
380 378 421 0
380 -378 -421 0
-380 378 -421 0
-380 -378 421 0
381 378 455 0
381 -378 -455 0
-381 378 -455 0
-381 -378 455 0
383 382 431 0
383 -382 -431 0
-383 382 -431 0
-383 -382 431 0
384 382 441 0
384 -382 -441 0
-384 382 -441 0
-384 -382 441 0
385 382 442 0
385 -382 -442 0
-385 382 -442 0
-385 -382 442 0
387 386 429 0
387 -386 -429 0
-387 386 -429 0
-387 -386 429 0
388 386 461 0
388 -386 -461 0
-388 386 -461 0
-388 -386 461 0
392 391 455 0
392 -391 -455 0
-392 391 -455 0
-392 -391 455 0
395 394 442 0
395 -394 -442 0
-395 394 -442 0
-395 -394 442 0
397 396 427 0
397 -396 -427 0
-397 396 -427 0
-397 -396 427 0
398 396 456 0
398 -396 -456 0
-398 396 -456 0
-398 -396 456 0
400 399 410 0
400 -399 -410 0
-400 399 -410 0
-400 -399 410 0
401 399 418 0
401 -399 -418 0
-401 399 -418 0
-401 -399 418 0
402 399 458 0
402 -399 -458 0
-402 399 -458 0
-402 -399 458 0
404 403 461 0
404 -403 -461 0
-404 403 -461 0
-404 -403 461 0
406 405 415 0
406 -405 -415 0
-406 405 -415 0
-406 -405 415 0
408 407 419 0
408 -407 -419 0
-408 407 -419 0
-408 -407 419 0
409 407 453 0
409 -407 -453 0
-409 407 -453 0
-409 -407 453 0
411 410 429 0
411 -410 -429 0
-411 410 -429 0
-411 -410 429 0
412 410 441 0
412 -410 -441 0
-412 410 -441 0
-412 -410 441 0
413 410 459 0
413 -410 -459 0
-413 410 -459 0
-413 -410 459 0
416 415 458 0
416 -415 -458 0
-416 415 -458 0
-416 -415 458 0
420 419 447 0
420 -419 -447 0
-420 419 -447 0
-420 -419 447 0
422 421 434 0
422 -421 -434 0
-422 421 -434 0
-422 -421 434 0
423 421 439 0
423 -421 -439 0
-423 421 -439 0
-423 -421 439 0
424 421 448 0
424 -421 -448 0
-424 421 -448 0
-424 -421 448 0
426 425 434 0
426 -425 -434 0
-426 425 -434 0
-426 -425 434 0
428 427 456 0
428 -427 -456 0
-428 427 -456 0
-428 -427 456 0
430 429 449 0
430 -429 -449 0
-430 429 -449 0
-430 -429 449 0
432 431 448 0
432 -431 -448 0
-432 431 -448 0
-432 -431 448 0
433 431 460 0
433 -431 -460 0
-433 431 -460 0
-433 -431 460 0
435 434 452 0
435 -434 -452 0
-435 434 -452 0
-435 -434 452 0
436 434 460 0
436 -434 -460 0
-436 434 -460 0
-436 -434 460 0
438 437 442 0
438 -437 -442 0
-438 437 -442 0
-438 -437 442 0
443 442 453 0
443 -442 -453 0
-443 442 -453 0
-443 -442 453 0
444 442 459 0
444 -442 -459 0
-444 442 -459 0
-444 -442 459 0
445 442 461 0
445 -442 -461 0
-445 442 -461 0
-445 -442 461 0
450 449 458 0
450 -449 -458 0
-450 449 -458 0
-450 -449 458 0
451 449 459 0
451 -449 -459 0
-451 449 -459 0
-451 -449 459 0
